4 15 1 167077843
14 1 15 1305 2 6 3233 5 3233 1 10 9103 1 4 5760 1 4 5760 1 4 5760 1 4 5760 2 8 5577 9 5577 1 15 322 2 14 800 7 800 2 14 800 7 800 2 14 800 7 800 1 11 86400 1 12 2880
17 1 1 1081 2 6 1748 5 1748 1 10 1935 1 4 3032 1 4 3032 1 4 3032 1 4 3032 2 8 2952 9 2952 1 15 340 1 2 1263 1 3 1263 1 13 1200 2 14 300 7 300 2 14 300 7 300 2 14 300 7 300 1 11 86400 1 12 1440
13 1 15 718 1 15 718 1 15 703 1 15 703 1 15 703 1 15 703 1 15 703 1 15 703 1 15 703 1 15 703 1 3 1215 1 2 1215 1 13 1200
13 1 2 1215 1 3 1215 1 13 1200 1 15 718 1 15 718 1 15 703 1 15 703 1 15 703 1 15 703 1 15 703 1 15 703 1 15 703 1 15 703